CSW03
Position Depot: Random
Horizon for Depot: Small
Position of customers: Cluster
Distribution of the demand: Small
Width of time windows: Wide
Distribution of the service: Small

VEHICLE 
NUMBER 	 CAPACITY 
 5 	 	 145 
 
CUSTOMER
CUST NO. 	 XCOORD.  	 YCOORD. 	 DEMAND 	 READY TIME 	 DUE DATE 	 SERVICE TIME 
 0 	 	 181 	 	 830 	 	 0 	 	 0 	 	 1991 	 	 0 
  1 	 	 185 	 	 926 	 	 9 	 	 842 	 	 1144 	 	 54 
  2 	 	 606 	 	 975 	 	 10 	 	 439 	 	 691 	 	 78 
  3 	 	 202 	 	 622 	 	 8 	 	 1237 	 	 1678 	 	 76 
  4 	 	 351 	 	 654 	 	 8 	 	 676 	 	 928 	 	 61 
  5 	 	 301 	 	 346 	 	 6 	 	 921 	 	 1224 	 	 56 
  6 	 	 611 	 	 156 	 	 5 	 	 1014 	 	 1269 	 	 50 
  7 	 	 284 	 	 42 	 	 8 	 	 421 	 	 874 	 	 61 
  8 	 	 92 	 	 939 	 	 7 	 	 1412 	 	 1708 	 	 95 
  9 	 	 175 	 	 514 	 	 7 	 	 127 	 	 347 	 	 90 
  10 	 	 266 	 	 60 	 	 10 	 	 1536 	 	 1991 	 	 78 
  11 	 	 172 	 	 682 	 	 6 	 	 738 	 	 1179 	 	 66 
  12 	 	 299 	 	 835 	 	 9 	 	 105 	 	 325 	 	 66 
  13 	 	 205 	 	 932 	 	 8 	 	 1208 	 	 1616 	 	 80 
  14 	 	 619 	 	 958 	 	 8 	 	 439 	 	 867 	 	 50 
  15 	 	 414 	 	 253 	 	 6 	 	 1658 	 	 1991 	 	 83 
  16 	 	 370 	 	 607 	 	 5 	 	 1586 	 	 1790 	 	 69 
  17 	 	 287 	 	 360 	 	 9 	 	 139 	 	 549 	 	 63 
  18 	 	 317 	 	 40 	 	 8 	 	 658 	 	 1067 	 	 84 
  19 	 	 644 	 	 276 	 	 6 	 	 496 	 	 794 	 	 62 
  20 	 	 373 	 	 758 	 	 5 	 	 920 	 	 1256 	 	 56 
  21 	 	 179 	 	 947 	 	 9 	 	 1376 	 	 1779 	 	 57 
  22 	 	 354 	 	 752 	 	 8 	 	 534 	 	 988 	 	 92 
  23 	 	 269 	 	 70 	 	 9 	 	 769 	 	 1199 	 	 50 
  24 	 	 227 	 	 639 	 	 10 	 	 1272 	 	 1619 	 	 77 
  25 	 	 163 	 	 715 	 	 5 	 	 284 	 	 750 	 	 91 
  26 	 	 578 	 	 181 	 	 9 	 	 733 	 	 963 	 	 66 
  27 	 	 576 	 	 163 	 	 10 	 	 631 	 	 852 	 	 100 
  28 	 	 468 	 	 665 	 	 10 	 	 996 	 	 1266 	 	 90 
  29 	 	 409 	 	 578 	 	 5 	 	 722 	 	 978 	 	 71 
  30 	 	 532 	 	 749 	 	 9 	 	 1357 	 	 1715 	 	 62 
  31 	 	 297 	 	 335 	 	 10 	 	 629 	 	 1063 	 	 90 
  32 	 	 704 	 	 831 	 	 9 	 	 1174 	 	 1620 	 	 95 
  33 	 	 393 	 	 654 	 	 10 	 	 364 	 	 836 	 	 59 
  34 	 	 257 	 	 97 	 	 7 	 	 443 	 	 810 	 	 64 
  35 	 	 144 	 	 941 	 	 7 	 	 851 	 	 1285 	 	 98 
  36 	 	 282 	 	 70 	 	 8 	 	 1161 	 	 1635 	 	 79 
  37 	 	 121 	 	 586 	 	 9 	 	 796 	 	 1242 	 	 71 
  38 	 	 560 	 	 851 	 	 5 	 	 301 	 	 775 	 	 50 
  39 	 	 56 	 	 738 	 	 6 	 	 930 	 	 1287 	 	 64 
  40 	 	 131 	 	 811 	 	 8 	 	 -109 	 	 376 	 	 84 
  41 	 	 435 	 	 59 	 	 6 	 	 1351 	 	 1734 	 	 83 
  42 	 	 111 	 	 786 	 	 6 	 	 952 	 	 1326 	 	 71 
  43 	 	 639 	 	 224 	 	 5 	 	 1326 	 	 1591 	 	 65 
  44 	 	 188 	 	 873 	 	 8 	 	 102 	 	 523 	 	 71 
  45 	 	 284 	 	 671 	 	 5 	 	 1092 	 	 1337 	 	 51 
  46 	 	 517 	 	 869 	 	 9 	 	 1435 	 	 1932 	 	 66 
  47 	 	 208 	 	 564 	 	 9 	 	 -34 	 	 408 	 	 60 
  48 	 	 250 	 	 942 	 	 7 	 	 156 	 	 401 	 	 99 
  49 	 	 721 	 	 952 	 	 10 	 	 755 	 	 1063 	 	 64 
  50 	 	 312 	 	 683 	 	 10 	 	 331 	 	 830 	 	 62 
  51 	 	 135 	 	 0 	 	 6 	 	 711 	 	 914 	 	 74 
  52 	 	 695 	 	 959 	 	 5 	 	 150 	 	 582 	 	 75 
  53 	 	 572 	 	 953 	 	 7 	 	 3 	 	 450 	 	 66 
  54 	 	 343 	 	 647 	 	 5 	 	 382 	 	 697 	 	 63 
  55 	 	 628 	 	 171 	 	 6 	 	 672 	 	 875 	 	 98 
  56 	 	 283 	 	 79 	 	 8 	 	 1364 	 	 1700 	 	 62 
  57 	 	 607 	 	 152 	 	 8 	 	 663 	 	 880 	 	 54 
  58 	 	 386 	 	 671 	 	 10 	 	 1602 	 	 1991 	 	 54 
  59 	 	 82 	 	 949 	 	 6 	 	 557 	 	 956 	 	 90 
  60 	 	 298 	 	 52 	 	 5 	 	 1234 	 	 1535 	 	 59 
  61 	 	 303 	 	 328 	 	 7 	 	 1502 	 	 1736 	 	 86 
  62 	 	 135 	 	 575 	 	 10 	 	 46 	 	 285 	 	 54 
  63 	 	 368 	 	 633 	 	 6 	 	 1470 	 	 1969 	 	 97 
  64 	 	 410 	 	 37 	 	 5 	 	 1309 	 	 1752 	 	 77 
  65 	 	 444 	 	 647 	 	 8 	 	 998 	 	 1267 	 	 57 
  66 	 	 509 	 	 757 	 	 9 	 	 353 	 	 616 	 	 68 
  67 	 	 287 	 	 363 	 	 10 	 	 493 	 	 876 	 	 62 
  68 	 	 638 	 	 235 	 	 10 	 	 883 	 	 1345 	 	 72 
  69 	 	 333 	 	 404 	 	 9 	 	 1491 	 	 1991 	 	 54 
  70 	 	 328 	 	 410 	 	 5 	 	 1555 	 	 1887 	 	 96 
  71 	 	 520 	 	 597 	 	 9 	 	 807 	 	 1141 	 	 85 
  72 	 	 191 	 	 553 	 	 6 	 	 -12 	 	 452 	 	 76 
  73 	 	 243 	 	 351 	 	 5 	 	 246 	 	 688 	 	 77 
  74 	 	 206 	 	 977 	 	 9 	 	 1052 	 	 1399 	 	 52 
  75 	 	 223 	 	 541 	 	 7 	 	 581 	 	 854 	 	 56 
  76 	 	 337 	 	 674 	 	 8 	 	 498 	 	 731 	 	 86 
  77 	 	 187 	 	 863 	 	 10 	 	 1260 	 	 1532 	 	 63 
  78 	 	 207 	 	 596 	 	 7 	 	 1496 	 	 1991 	 	 72 
  79 	 	 607 	 	 966 	 	 6 	 	 689 	 	 1188 	 	 82 
  80 	 	 174 	 	 133 	 	 9 	 	 574 	 	 1067 	 	 59 
  81 	 	 171 	 	 872 	 	 9 	 	 296 	 	 549 	 	 65 
  82 	 	 137 	 	 15 	 	 9 	 	 1083 	 	 1355 	 	 71 
  83 	 	 312 	 	 111 	 	 6 	 	 1344 	 	 1648 	 	 62 
  84 	 	 409 	 	 115 	 	 9 	 	 1172 	 	 1637 	 	 97 
  85 	 	 661 	 	 48 	 	 8 	 	 700 	 	 1009 	 	 77 
  86 	 	 235 	 	 610 	 	 8 	 	 1332 	 	 1564 	 	 89 
  87 	 	 522 	 	 993 	 	 8 	 	 528 	 	 942 	 	 68 
  88 	 	 255 	 	 339 	 	 10 	 	 163 	 	 546 	 	 77 
  89 	 	 228 	 	 3 	 	 6 	 	 1519 	 	 1991 	 	 55 
  90 	 	 237 	 	 115 	 	 8 	 	 1455 	 	 1686 	 	 96 
  91 	 	 270 	 	 20 	 	 10 	 	 563 	 	 987 	 	 56 
  92 	 	 202 	 	 685 	 	 9 	 	 1370 	 	 1652 	 	 96 
  93 	 	 311 	 	 100 	 	 9 	 	 644 	 	 1047 	 	 72 
  94 	 	 430 	 	 676 	 	 5 	 	 1327 	 	 1706 	 	 71 
  95 	 	 681 	 	 115 	 	 5 	 	 1548 	 	 1881 	 	 59 
  96 	 	 535 	 	 929 	 	 8 	 	 147 	 	 404 	 	 95 
  97 	 	 215 	 	 540 	 	 5 	 	 1515 	 	 1792 	 	 96 
  98 	 	 169 	 	 931 	 	 5 	 	 415 	 	 894 	 	 74 
  99 	 	 258 	 	 331 	 	 10 	 	 1592 	 	 1991 	 	 99 
  100 	 	 401 	 	 583 	 	 7 	 	 1316 	 	 1729 	 	 87 
 